benchmarks/bfuzz0/106292955826510102515813305161106119839.smt2
(set-logic QF_FP)
(declare-const x0 (_ FloatingPoint 11 53))
(declare-const x1 (_ FloatingPoint 11 53))
(declare-const x2 (_ FloatingPoint 11 53))
(declare-const x3 (_ FloatingPoint 11 53))
(declare-const x4 (_ FloatingPoint 11 53))
(declare-const x5 (_ FloatingPoint 11 53))
(declare-const x6 (_ FloatingPoint 11 53))
(declare-const x7 (_ FloatingPoint 11 53))
(assert (fp.eq (fp.add RNE (fp.sub RNE x5 x5) (fp.mul RNE x6 x4)) (fp.add RNE (fp.add RNE x2 x0) (fp.div RNE x3 x2))))
(assert (fp.leq (fp.sub RNE (fp.neg x4) (fp.mul RNE x6 x5)) (fp.sub RNE (fp.mul RNE x7 x5) (fp.neg x0))))
(assert (fp.gt (fp.neg (fp.div RNE x1 x6)) (fp.neg (fp.neg x0))))
(assert (fp.gt (fp.mul RNE (fp.sub RNE x2 x6) (fp.div RNE x3 x3)) (fp.add RNE (fp.add RNE x3 x1) (fp.mul RNE x0 x4))))
(check-sat)
