db/data/106292955826510102515813305161106119839.z3.out
-------------------
2500.079624946
